
n_res = 8;
rcap = [72, 68, 71, 77, 1439, 1561, 1529, 1502];
rtype = [1, 1, 1, 1, 2, 2, 2, 2];
n_tasks = 100;
modes =  [{1, 2, 3}, {4, 5, 6}, {7, 8, 9}, {10, 11, 12}, {13, 14, 15}, {16, 17, 18}, {19, 20, 21}, {22, 23, 24}, {25, 26, 27}, {28, 29, 30}, {31, 32, 33}, {34, 35, 36}, {37, 38, 39}, {40, 41, 42}, {43, 44, 45}, {46, 47, 48}, {49, 50, 51}, {52, 53, 54}, {55, 56, 57}, {58, 59, 60}, {61, 62, 63}, {64, 65, 66}, {67, 68, 69}, {70, 71, 72}, {73, 74, 75}, {76, 77, 78}, {79, 80, 81}, {82, 83, 84}, {85, 86, 87}, {88, 89, 90}, {91, 92, 93}, {94, 95, 96}, {97, 98, 99}, {100, 101, 102}, {103, 104, 105}, {106, 107, 108}, {109, 110, 111}, {112, 113, 114}, {115, 116, 117}, {118, 119, 120}, {121, 122, 123}, {124, 125, 126}, {127, 128, 129}, {130, 131, 132}, {133, 134, 135}, {136, 137, 138}, {139, 140, 141}, {142, 143, 144}, {145, 146, 147}, {148, 149, 150}, {151, 152, 153}, {154, 155, 156}, {157, 158, 159}, {160, 161, 162}, {163, 164, 165}, {166, 167, 168}, {169, 170, 171}, {172, 173, 174}, {175, 176, 177}, {178, 179, 180}, {181, 182, 183}, {184, 185, 186}, {187, 188, 189}, {190, 191, 192}, {193, 194, 195}, {196, 197, 198}, {199, 200, 201}, {202, 203, 204}, {205, 206, 207}, {208, 209, 210}, {211, 212, 213}, {214, 215, 216}, {217, 218, 219}, {220, 221, 222}, {223, 224, 225}, {226, 227, 228}, {229, 230, 231}, {232, 233, 234}, {235, 236, 237}, {238, 239, 240}, {241, 242, 243}, {244, 245, 246}, {247, 248, 249}, {250, 251, 252}, {253, 254, 255}, {256, 257, 258}, {259, 260, 261}, {262, 263, 264}, {265, 266, 267}, {268, 269, 270}, {271, 272, 273}, {274, 275, 276}, {277, 278, 279}, {280, 281, 282}, {283, 284, 285}, {286, 287, 288}, {289, 290, 291}, {292, 293, 294}, {295, 296, 297}, {298, 299, 300}];
succ =  [{100, 99, 95, 72, 68, 64, 63, 60, 56, 54, 53, 52, 50, 48, 40, 39, 34, 24, 14}, {95, 94, 93, 75, 68, 64, 56, 55, 53, 51, 50, 48, 44, 37, 32, 29, 20}, {65, 64, 56, 52, 51, 48, 44, 41, 37, 35, 29, 24, 20}, {67, 66, 64, 60, 56, 51, 50, 48, 42, 40, 31, 29, 24, 14}, {100, 98, 97, 92, 68, 55, 53, 48, 41, 37, 30, 24, 21}, {97, 96, 95, 94, 93, 76, 74, 67, 66, 65, 63, 62, 50, 48, 47, 39, 38, 34, 29}, {98, 97, 96, 94, 92, 91, 71, 68, 65, 64, 56, 51, 48, 47, 36, 32, 29}, {100, 99, 94, 93, 75, 64, 62, 61, 60, 51, 48, 39, 20}, {99, 97, 96, 94, 74, 71, 64, 60, 53, 51, 48, 43, 42, 36, 35}, {100, 96, 95, 93, 91, 74, 73, 71, 68, 65, 61, 60, 59, 58, 56, 55, 54, 49, 44, 43}, {100, 98, 97, 96, 95, 94, 93, 89, 75, 73, 71, 68, 63, 61, 60, 59, 58, 52, 48, 40}, {99, 98, 97, 93, 73, 66, 64, 63, 61, 53, 51, 48, 40, 37}, {99, 98, 97, 96, 93, 91, 90, 89, 87, 75, 72, 71, 68, 64, 63, 62, 60, 58, 57, 50, 48}, {97, 96, 94, 93, 92, 91, 90, 89, 88, 84, 83, 75, 74, 73, 70, 65, 62, 61, 37}, {100, 93, 91, 90, 86, 72, 71, 70, 69, 66, 60, 58, 57, 52, 51, 49}, {96, 94, 93, 82, 73, 71, 69, 67, 61, 51, 48, 40}, {100, 97, 92, 89, 83, 73, 72, 70, 68, 66, 64, 63, 59, 41}, {99, 98, 93, 85, 84, 76, 75, 71, 70, 68, 65, 62, 61, 53, 48}, {96, 94, 93, 90, 84, 78, 73, 70, 61, 60, 51, 39}, {98, 97, 96, 90, 86, 74, 71, 63, 58, 54, 38}, {99, 93, 86, 73, 72, 57, 52, 34}, {95, 94, 92, 90, 87, 85, 80, 72, 71, 70, 69, 60, 58, 48}, {97, 95, 94, 90, 88, 85, 80, 79, 74, 72, 70, 64, 63, 62, 61}, {94, 93, 88, 86, 85, 84, 83, 71, 70, 69, 62, 61, 58, 57}, {93, 92, 91, 90, 89, 87, 86, 70, 63, 60, 58, 57, 52}, {99, 95, 94, 92, 90, 89, 87, 86, 83, 78, 75, 74, 72, 70, 63, 57}, {100, 92, 86, 84, 83, 74, 70, 66, 60, 57, 51}, {98, 96, 88, 86, 74, 72, 71, 38}, {100, 99, 90, 89, 88, 87, 86, 79, 78, 72, 69, 57}, {95, 91, 90, 89, 86, 85, 84, 83, 80, 71, 60, 58}, {91, 87, 86, 85, 84, 83, 74, 71, 70, 69, 62, 58}, {99, 88, 87, 85, 84, 83, 73, 60, 58, 57}, {91, 88, 86, 83, 81, 80, 79, 68, 58, 52}, {90, 88, 87, 84, 83, 80, 71, 69, 51}, {95, 91, 87, 86, 84, 78, 73, 69, 57}, {95, 86, 83, 79, 78, 63, 61, 57}, {86, 85, 71, 69, 58, 57}, {91, 85, 84, 83, 82, 81, 80, 78, 70, 69}, {98, 92, 87, 86, 83, 82, 81, 80, 79, 69}, {91, 90, 84, 83, 79, 78, 70, 57}, {88, 87, 85, 81, 79, 77, 75, 62}, {95, 92, 89, 88, 85, 78, 77, 57}, {90, 87, 83, 81, 80, 72, 70, 69}, {92, 89, 87, 84, 83, 79, 62}, {92, 91, 87, 82, 80, 79, 78, 77}, {98, 82, 81, 80, 79, 78, 70}, {85, 79, 69, 58}, {88, 86, 83, 81, 78, 77}, {88, 83, 80, 79, 78}, {85, 84, 83, 70}, {89, 77, 59}, {85, 82, 78, 77}, {83, 82, 81, 77}, {89, 88, 83, 78}, {86, 78, 77}, {86, 70}, {81, 80}, {82, 78}, {85, 79}, {79, 77}, {87, 77}, {82, 78}, {84, 81}, {86, 78}, {81, 77}, {87, 82}, {81, 79}, {69}, {77}, {77}, {79}, {84}, {79}, {77}, {80}, {77}, {}, {}, {}, {}, {}, {}, {}, {}, {}, {}, {}, {}, {}, {}, {}, {}, {}, {}, {}, {}, {}, {}, {}, {}];
n_opt = 300;
dur = [15, 20, 30, 4, 5, 28, 1, 21, 28, 9, 18, 26, 4, 12, 20, 7, 13, 23, 10, 11, 21, 1, 19, 20, 6, 13, 23, 1, 5, 6, 17, 25, 26, 11, 12, 16, 1, 11, 25, 5, 8, 21, 3, 12, 22, 3, 15, 20, 4, 24, 25, 2, 19, 25, 2, 16, 30, 1, 10, 16, 6, 23, 29, 6, 24, 25, 6, 7, 10, 15, 24, 30, 8, 10, 30, 4, 27, 28, 5, 8, 11, 9, 12, 13, 5, 10, 13, 6, 10, 19, 5, 10, 11, 8, 18, 19, 1, 2, 17, 9, 29, 30, 1, 8, 30, 17, 18, 30, 5, 9, 29, 6, 20, 23, 11, 14, 24, 3, 16, 17, 4, 14, 29, 14, 15, 23, 19, 21, 29, 1, 24, 25, 11, 15, 20, 12, 15, 25, 18, 27, 29, 7, 17, 26, 2, 10, 26, 4, 10, 16, 13, 14, 30, 9, 25, 26, 2, 11, 13, 5, 25, 29, 2, 5, 7, 10, 19, 29, 12, 15, 20, 2, 23, 25, 2, 3, 6, 19, 20, 29, 4, 5, 6, 13, 22, 24, 23, 24, 28, 5, 11, 28, 15, 20, 25, 16, 25, 26, 3, 29, 30, 9, 14, 23, 17, 21, 24, 16, 17, 30, 9, 14, 29, 3, 9, 17, 19, 20, 26, 2, 21, 23, 20, 23, 30, 19, 22, 24, 3, 8, 18, 1, 3, 18, 3, 5, 8, 10, 20, 24, 16, 22, 27, 4, 6, 16, 1, 2, 9, 3, 23, 28, 4, 5, 17, 13, 17, 27, 15, 17, 28, 10, 24, 30, 1, 9, 26, 20, 24, 28, 9, 17, 21, 22, 25, 26, 19, 23, 25, 3, 15, 23, 15, 21, 26, 4, 22, 25, 18, 19, 24, 4, 6, 10, 5, 11, 28, 13, 22, 30];
rreq = [|4, 2, 2, 3, 2, 1, 3, 3, 3, 3, 2, 2, 2, 2, 2, 4, 4, 4, 2, 2, 2, 5, 5, 5, 4, 3, 2, 3, 2, 1, 2, 2, 2, 3, 3, 2, 5, 4, 3, 2, 2, 2, 5, 4, 4, 1, 1, 1, 4, 4, 4, 3, 3, 3, 5, 4, 3, 5, 4, 4, 4, 4, 3, 2, 1, 1, 5, 3, 2, 3, 3, 3, 4, 2, 2, 4, 2, 2, 5, 4, 4, 4, 4, 4, 1, 1, 1, 3, 3, 2, 2, 1, 1, 1, 1, 1, 3, 3, 2, 4, 4, 4, 2, 2, 2, 4, 3, 3, 4, 4, 2, 5, 3, 3, 3, 2, 1, 1, 1, 1, 4, 4, 4, 5, 5, 5, 4, 4, 4, 5, 5, 5, 3, 3, 3, 4, 2, 2, 4, 4, 4, 4, 4, 3, 3, 2, 2, 5, 4, 4, 3, 2, 2, 3, 2, 2, 5, 4, 4, 3, 3, 3, 5, 3, 3, 5, 5, 5, 1, 1, 1, 4, 3, 3, 5, 4, 2, 1, 1, 1, 1, 1, 1, 3, 2, 2, 3, 3, 3, 3, 2, 1, 3, 3, 2, 4, 3, 3, 3, 3, 3, 4, 4, 2, 4, 4, 3, 5, 4, 3, 2, 1, 1, 3, 3, 2, 1, 1, 1, 4, 4, 3, 2, 1, 1, 2, 2, 2, 4, 4, 4, 4, 3, 2, 4, 2, 1, 5, 5, 5, 3, 3, 3, 4, 3, 1, 2, 1, 1, 3, 2, 2, 3, 3, 2, 2, 2, 2, 4, 2, 2, 2, 2, 2, 2, 2, 2, 1, 1, 1, 2, 1, 1, 1, 1, 1, 4, 3, 2, 5, 5, 5, 5, 4, 3, 4, 3, 2, 1, 1, 1, 3, 2, 2, 5, 2, 1, 2, 1, 1
 |5, 5, 5, 4, 4, 3, 1, 1, 1, 5, 3, 3, 5, 4, 4, 5, 4, 4, 2, 2, 2, 2, 2, 2, 4, 3, 2, 3, 3, 3, 4, 3, 3, 2, 1, 1, 5, 3, 3, 3, 3, 3, 2, 1, 1, 2, 2, 2, 5, 4, 2, 2, 1, 1, 4, 4, 4, 4, 3, 2, 3, 2, 1, 2, 2, 2, 2, 2, 1, 1, 1, 1, 3, 2, 1, 3, 3, 3, 4, 4, 4, 4, 2, 2, 3, 3, 3, 5, 4, 4, 4, 3, 3, 2, 2, 1, 5, 4, 2, 2, 1, 1, 4, 4, 4, 4, 4, 3, 4, 3, 2, 3, 3, 3, 5, 3, 3, 3, 3, 3, 4, 3, 2, 5, 4, 4, 2, 2, 2, 1, 1, 1, 1, 1, 1, 3, 3, 3, 2, 2, 1, 5, 2, 1, 4, 3, 3, 4, 3, 1, 5, 3, 3, 3, 3, 3, 1, 1, 1, 5, 4, 3, 4, 3, 3, 3, 2, 2, 4, 3, 3, 4, 3, 3, 3, 3, 3, 3, 3, 3, 3, 3, 3, 3, 2, 2, 5, 3, 1, 4, 3, 3, 4, 2, 2, 3, 2, 2, 3, 2, 2, 4, 3, 1, 4, 2, 2, 2, 2, 2, 1, 1, 1, 3, 3, 2, 1, 1, 1, 4, 3, 2, 4, 2, 1, 4, 3, 2, 4, 4, 4, 3, 2, 2, 5, 4, 2, 4, 4, 4, 4, 4, 3, 2, 1, 1, 5, 2, 2, 5, 3, 2, 2, 2, 2, 3, 2, 2, 5, 3, 3, 2, 1, 1, 3, 3, 3, 2, 2, 2, 2, 1, 1, 4, 3, 1, 3, 2, 1, 4, 2, 1, 4, 4, 4, 3, 3, 3, 3, 3, 1, 5, 4, 3, 4, 3, 2, 4, 4, 4
 |4, 4, 4, 3, 3, 1, 3, 3, 2, 2, 2, 1, 2, 2, 1, 4, 4, 4, 4, 2, 2, 4, 3, 3, 3, 3, 3, 4, 3, 2, 3, 2, 1, 4, 2, 1, 5, 5, 5, 4, 3, 1, 4, 4, 4, 3, 3, 3, 5, 4, 4, 4, 3, 2, 5, 2, 1, 4, 4, 3, 4, 2, 2, 3, 3, 3, 3, 2, 2, 4, 2, 2, 3, 2, 1, 3, 2, 2, 3, 2, 1, 1, 1, 1, 3, 3, 3, 3, 2, 2, 2, 1, 1, 3, 2, 2, 3, 1, 1, 2, 2, 1, 2, 2, 2, 5, 4, 4, 2, 1, 1, 3, 3, 2, 3, 3, 3, 4, 2, 1, 4, 3, 2, 4, 4, 2, 4, 4, 4, 1, 1, 1, 3, 2, 2, 5, 5, 5, 2, 2, 1, 3, 2, 1, 3, 2, 2, 3, 2, 2, 3, 3, 3, 2, 2, 2, 2, 2, 2, 3, 2, 2, 2, 1, 1, 4, 3, 3, 2, 2, 2, 5, 4, 2, 4, 4, 2, 5, 4, 4, 1, 1, 1, 5, 3, 3, 4, 4, 3, 4, 4, 4, 3, 3, 1, 5, 4, 4, 4, 4, 4, 4, 4, 4, 2, 1, 1, 4, 2, 1, 4, 4, 4, 4, 4, 4, 4, 3, 1, 4, 4, 4, 4, 2, 1, 2, 1, 1, 5, 3, 3, 5, 4, 4, 4, 4, 3, 2, 2, 2, 1, 1, 1, 3, 2, 2, 5, 4, 4, 4, 4, 3, 3, 2, 2, 4, 3, 3, 4, 3, 3, 4, 3, 3, 2, 1, 1, 3, 2, 2, 4, 2, 2, 1, 1, 1, 3, 3, 2, 1, 1, 1, 2, 2, 2, 4, 4, 4, 3, 3, 1, 4, 4, 4, 5, 4, 4, 2, 2, 2
 |4, 3, 2, 3, 2, 2, 4, 2, 1, 4, 3, 3, 3, 2, 2, 4, 2, 2, 4, 3, 3, 5, 3, 3, 4, 4, 3, 4, 2, 1, 4, 3, 3, 3, 2, 1, 4, 3, 3, 4, 4, 3, 5, 5, 5, 3, 3, 2, 4, 4, 4, 5, 3, 3, 3, 3, 2, 5, 3, 3, 2, 1, 1, 4, 3, 2, 4, 3, 2, 4, 2, 2, 3, 3, 3, 4, 4, 4, 4, 3, 2, 5, 3, 3, 3, 1, 1, 4, 2, 2, 3, 2, 2, 2, 2, 1, 1, 1, 1, 3, 1, 1, 5, 4, 4, 3, 1, 1, 3, 3, 2, 3, 2, 2, 3, 3, 3, 3, 3, 3, 5, 3, 2, 4, 4, 2, 4, 2, 2, 4, 3, 2, 4, 2, 2, 3, 1, 1, 4, 4, 4, 4, 4, 3, 2, 1, 1, 2, 2, 1, 5, 3, 1, 5, 3, 3, 2, 1, 1, 2, 1, 1, 4, 3, 3, 4, 3, 3, 4, 4, 4, 3, 3, 3, 3, 3, 1, 3, 2, 2, 3, 1, 1, 2, 2, 2, 4, 2, 2, 4, 3, 2, 4, 4, 4, 1, 1, 1, 3, 3, 3, 1, 1, 1, 5, 2, 2, 1, 1, 1, 4, 3, 3, 5, 5, 5, 5, 4, 4, 4, 2, 2, 5, 4, 3, 3, 2, 2, 4, 3, 2, 3, 2, 2, 4, 2, 2, 5, 4, 2, 2, 1, 1, 5, 2, 2, 4, 4, 4, 2, 2, 2, 4, 4, 4, 3, 2, 2, 3, 2, 1, 2, 1, 1, 2, 2, 2, 5, 3, 2, 2, 2, 1, 1, 1, 1, 4, 3, 2, 1, 1, 1, 4, 2, 2, 4, 3, 3, 4, 4, 4, 2, 1, 1, 5, 4, 3, 4, 4, 4
 |2, 2, 2, 26, 16, 13, 22, 15, 12, 25, 23, 17, 8, 6, 5, 20, 19, 19, 25, 24, 24, 10, 8, 5, 20, 18, 11, 4, 4, 3, 20, 19, 17, 9, 5, 3, 24, 18, 11, 29, 23, 21, 7, 4, 4, 11, 10, 9, 26, 24, 23, 18, 17, 17, 13, 10, 10, 21, 17, 17, 18, 18, 15, 14, 13, 10, 22, 13, 12, 20, 20, 19, 21, 21, 8, 13, 13, 13, 25, 23, 21, 16, 13, 10, 17, 11, 10, 25, 24, 24, 11, 6, 3, 15, 13, 9, 9, 9, 9, 10, 10, 10, 20, 12, 10, 16, 13, 12, 22, 20, 18, 13, 13, 11, 15, 12, 12, 11, 9, 9, 22, 17, 5, 18, 10, 6, 12, 9, 9, 16, 6, 3, 12, 7, 5, 15, 14, 13, 20, 17, 11, 13, 11, 7, 27, 24, 20, 8, 7, 4, 17, 13, 11, 18, 12, 8, 29, 27, 24, 26, 22, 22, 21, 15, 8, 17, 17, 17, 13, 10, 6, 30, 20, 19, 11, 8, 7, 22, 19, 17, 25, 24, 24, 1, 1, 1, 17, 12, 10, 14, 13, 13, 12, 6, 3, 24, 21, 19, 21, 17, 13, 7, 6, 4, 16, 13, 7, 5, 2, 2, 17, 17, 9, 4, 2, 2, 26, 26, 18, 24, 19, 3, 10, 8, 8, 16, 16, 16, 18, 14, 6, 7, 6, 4, 25, 18, 12, 22, 21, 14, 20, 14, 9, 19, 14, 14, 1, 1, 1, 25, 22, 19, 19, 19, 17, 12, 11, 3, 24, 17, 3, 21, 17, 12, 26, 20, 17, 13, 13, 13, 23, 23, 22, 21, 21, 21, 22, 22, 22, 16, 12, 8, 25, 14, 12, 14, 14, 14, 17, 17, 8, 25, 12, 5, 21, 15, 9, 20, 18, 17
 |17, 17, 15, 13, 11, 8, 27, 18, 14, 18, 14, 11, 23, 23, 23, 14, 8, 6, 22, 13, 3, 9, 9, 9, 25, 25, 24, 23, 16, 11, 22, 22, 22, 15, 14, 8, 19, 16, 10, 20, 16, 11, 27, 26, 25, 27, 24, 17, 16, 15, 13, 8, 5, 5, 4, 4, 4, 24, 16, 15, 28, 26, 22, 18, 12, 10, 25, 24, 23, 5, 3, 3, 21, 17, 12, 26, 18, 13, 22, 9, 6, 19, 12, 9, 20, 19, 10, 17, 16, 16, 24, 23, 23, 25, 10, 4, 11, 8, 5, 26, 20, 20, 15, 14, 14, 28, 19, 15, 11, 9, 9, 26, 26, 26, 20, 14, 8, 17, 11, 7, 13, 11, 5, 14, 13, 3, 24, 18, 14, 22, 16, 7, 13, 9, 4, 9, 7, 2, 20, 16, 12, 21, 15, 13, 11, 11, 9, 17, 16, 11, 19, 17, 14, 23, 21, 21, 15, 13, 12, 24, 22, 19, 21, 11, 7, 16, 14, 8, 22, 14, 5, 16, 15, 14, 28, 19, 14, 17, 16, 12, 21, 13, 10, 30, 26, 23, 26, 22, 17, 18, 14, 8, 20, 12, 10, 26, 26, 21, 2, 2, 2, 18, 17, 17, 14, 13, 10, 22, 17, 16, 22, 14, 9, 24, 24, 23, 20, 17, 11, 17, 15, 13, 23, 19, 16, 26, 15, 15, 26, 26, 26, 25, 22, 20, 14, 12, 11, 18, 11, 8, 21, 15, 9, 18, 14, 5, 13, 11, 10, 20, 15, 10, 20, 18, 6, 5, 4, 3, 16, 15, 12, 6, 5, 5, 11, 5, 1, 24, 24, 22, 21, 11, 9, 26, 24, 23, 30, 30, 30, 28, 19, 14, 23, 19, 10, 20, 19, 8, 11, 11, 9, 13, 9, 3, 12, 9, 8, 23, 11, 10
 |13, 13, 9, 12, 11, 11, 23, 20, 15, 29, 20, 17, 23, 22, 21, 23, 23, 20, 18, 13, 8, 3, 2, 1, 23, 16, 10, 16, 11, 10, 16, 12, 8, 20, 18, 17, 5, 3, 3, 14, 11, 11, 5, 4, 1, 22, 22, 22, 26, 26, 26, 12, 11, 8, 21, 13, 7, 18, 13, 11, 11, 10, 8, 23, 22, 18, 21, 15, 12, 23, 22, 17, 15, 15, 15, 19, 15, 12, 20, 17, 12, 17, 15, 13, 18, 17, 11, 22, 20, 7, 20, 10, 8, 8, 5, 3, 18, 17, 16, 22, 17, 11, 16, 12, 7, 22, 16, 11, 22, 16, 12, 19, 17, 17, 23, 17, 5, 4, 3, 3, 17, 17, 17, 23, 18, 3, 13, 8, 7, 19, 17, 11, 26, 25, 22, 13, 13, 4, 10, 9, 7, 7, 7, 5, 28, 27, 23, 21, 15, 9, 19, 19, 19, 25, 22, 22, 13, 11, 6, 21, 16, 14, 15, 12, 10, 24, 13, 8, 28, 23, 21, 28, 24, 20, 19, 9, 1, 13, 11, 9, 20, 10, 4, 13, 10, 6, 5, 3, 3, 6, 5, 5, 30, 28, 26, 20, 16, 8, 15, 13, 13, 24, 10, 1, 26, 17, 13, 26, 21, 12, 15, 12, 11, 9, 7, 6, 25, 22, 19, 22, 17, 12, 26, 23, 19, 25, 22, 18, 7, 7, 6, 12, 8, 4, 17, 16, 13, 26, 22, 14, 20, 20, 20, 26, 23, 21, 30, 29, 29, 23, 23, 23, 11, 10, 10, 7, 7, 7, 28, 24, 21, 22, 21, 19, 22, 21, 21, 18, 10, 3, 17, 16, 16, 11, 8, 4, 5, 3, 3, 24, 18, 11, 8, 8, 7, 26, 25, 22, 14, 12, 12, 26, 24, 22, 26, 20, 13, 26, 25, 24
 |17, 12, 6, 22, 19, 17, 12, 10, 9, 16, 14, 13, 20, 20, 19, 17, 15, 10, 22, 20, 19, 22, 14, 5, 17, 14, 12, 11, 11, 10, 18, 12, 3, 30, 29, 28, 21, 18, 17, 23, 23, 14, 20, 20, 20, 26, 24, 18, 19, 8, 5, 23, 13, 3, 16, 12, 5, 7, 7, 6, 15, 13, 12, 18, 13, 10, 5, 4, 2, 8, 7, 4, 12, 12, 10, 16, 13, 9, 3, 2, 1, 29, 20, 5, 27, 23, 17, 21, 16, 14, 25, 20, 14, 22, 19, 18, 25, 21, 14, 23, 18, 14, 22, 17, 13, 28, 28, 28, 16, 15, 7, 16, 14, 12, 19, 19, 19, 9, 8, 6, 18, 13, 7, 17, 14, 13, 15, 13, 12, 23, 19, 15, 17, 10, 4, 6, 4, 4, 20, 14, 6, 13, 9, 8, 10, 5, 1, 25, 23, 20, 20, 14, 14, 25, 23, 18, 22, 15, 11, 16, 13, 10, 12, 12, 10, 17, 14, 9, 21, 13, 8, 24, 19, 13, 24, 20, 16, 15, 12, 11, 25, 19, 11, 29, 15, 7, 20, 16, 7, 19, 18, 18, 23, 11, 8, 17, 15, 14, 9, 6, 5, 23, 16, 8, 14, 10, 4, 24, 23, 20, 16, 14, 7, 16, 16, 16, 17, 15, 12, 26, 26, 26, 11, 10, 9, 25, 23, 17, 11, 6, 4, 23, 20, 18, 15, 15, 15, 11, 10, 10, 20, 20, 20, 12, 9, 6, 6, 6, 6, 4, 4, 2, 22, 12, 2, 17, 12, 8, 10, 7, 5, 25, 21, 19, 29, 21, 8, 10, 8, 6, 26, 25, 23, 23, 23, 20, 29, 28, 28, 15, 13, 5, 26, 24, 22, 10, 8, 7, 19, 19, 19, 21, 14, 3, 28, 16, 15, 26, 23, 17|];